(set-info :smt-lib-version 2.6)
(set-logic QF_IDL)
(set-info :source | Leonardo de Moura |)
(set-info :category "check")
(set-info :status unsat)
(set-info :notes |This benchmark is designed to check if the integer DP is complete.|)
(declare-fun x1 () Int)
(declare-fun x2 () Int)
(assert (let ((?v_0 (- x1 x2))) (and (> ?v_0 0) (< ?v_0 4) (not (= ?v_0 1)) (not (= ?v_0 2)) (not (= ?v_0 3)))))
(check-sat)
(exit)
